
Gurobi 10.0.1 (win64) logging started Fri Oct  6 18:54:00 2023

Set parameter LogFile to value "./results//log/URT_11_deadline_heurTrue.log"
Gurobi Optimizer version 10.0.1 build v10.0.1rc0 (win64)

CPU model: AMD Ryzen 7 3700X 8-Core Processor, instruction set [SSE2|AVX|AVX2]
Thread count: 8 physical cores, 16 logical processors, using up to 16 threads

Optimize a model with 295 rows, 296 columns and 1050 nonzeros
Model fingerprint: 0x042e4e25
Model has 1 quadratic constraint
Variable types: 0 continuous, 296 integer (265 binary)
Coefficient statistics:
  Matrix range     [1e+00, 1e+07]
  QMatrix range    [1e+00, 1e+00]
  QLMatrix range   [1e+00, 1e+01]
  Objective range  [1e+00, 1e+00]
  Bounds range     [1e+00, 1e+00]
  RHS range        [1e+00, 3e+07]

User MIP start did not produce a new incumbent solution
User MIP start violates constraint initial_start_time_job0_stage0_machine0_constraint by 1.000000000

Presolve removed 69 rows and 172 columns
Presolve time: 0.01s
Presolved: 237 rows, 134 columns, 996 nonzeros
Variable types: 0 continuous, 134 integer (93 binary)

Root relaxation: objective 0.000000e+00, 40 iterations, 0.00 seconds (0.00 work units)
Another try with MIP start

    Nodes    |    Current Node    |     Objective Bounds      |     Work
 Expl Unexpl |  Obj  Depth IntInf | Incumbent    BestBd   Gap | It/Node Time

     0     0    0.00000    0    1          -    0.00000      -     -    0s
H    0     0                      93.0000000    0.00000   100%     -    0s
H    0     0                      91.0000000    0.00000   100%     -    0s
H    0     0                      81.0000000    0.00000   100%     -    0s
H    0     0                      70.0000000    0.00000   100%     -    0s
     0     0    0.00000    0    7   70.00000    0.00000   100%     -    0s
     0     0    0.00000    0   11   70.00000    0.00000   100%     -    0s
     0     0    0.00000    0    6   70.00000    0.00000   100%     -    0s
     0     0    0.00000    0    5   70.00000    0.00000   100%     -    0s
     0     0    0.00000    0   10   70.00000    0.00000   100%     -    0s
H    0     0                      69.0000000    0.00000   100%     -    0s
H    0     0                      57.0000000    0.00000   100%     -    0s
     0     0    0.00000    0    6   57.00000    0.00000   100%     -    0s
H    0     0                      56.0000000    0.00000   100%     -    0s
     0     0    0.00000    0   14   56.00000    0.00000   100%     -    0s
     0     0    0.00000    0    5   56.00000    0.00000   100%     -    0s
     0     0    0.00000    0   13   56.00000    0.00000   100%     -    0s
     0     0    0.00000    0    8   56.00000    0.00000   100%     -    0s
     0     0    0.00000    0    8   56.00000    0.00000   100%     -    0s
     0     2    0.00000    0    8   56.00000    0.00000   100%     -    0s
H   36    25                      51.0000000    4.00000  92.2%  22.4    0s
H  132    98                      50.0000000    5.00000  90.0%  12.4    0s
H  194   124                      46.0000000    5.00000  89.1%  10.5    0s
*18479   827              44      45.0000000   10.00000  77.8%   1.6    1s
H18671   837                      44.0000000   11.00000  75.0%   1.7    3s

Cutting planes:
  Learned: 9

Explored 25101 nodes (79554 simplex iterations) in 3.72 seconds (0.59 work units)
Thread count was 16 (of 16 available processors)

Solution count 10: 44 45 46 ... 81

Optimal solution found (tolerance 1.00e-04)
Best objective 4.400000000000e+01, best bound 4.400000000000e+01, gap 0.0000%
Warning: constraint name "precedence between 0,0 to 0,2 if x_[0,0,0,2,3]=0, i.e. 0,2 before 0,0" has a space
Warning: constraint name "precedence between 0,0 to 0,2 if x_[0,0,0,2,3]=0, i.e. 0,2 before 0,0" has a space
Warning: default constraint names used to write mps file
